100 68496

 132 379
791 47
874 886
84 740
399 551
754 528
628 504
109 22
221 213
904 310
553 661
368 968
147 753
112 272
615 571
558 799
924 938
494 202
505 32
475 443
836 162
890 767
271 254
995 521
421 977
897 651
707 480
367 10
280 726
283 505
40 785
959 836
189 560
164 436
994 111
989 153
536 635
536 917
4 869
835 102
290 753
953 833
433 191
471 729
181 563
248 804
628 81
279 489
877 895
581 88
863 194
254 104
181 783
830 96
681 423
825 891
509 198
761 1
700 407
566 378
326 167
357 509
825 638
650 313
680 593
391 418
615 763
934 681
85 477
317 73
212 141
515 582
384 262
691 340
342 308
815 245
964 515
988 337
844 575
38 561
511 76
420 880
751 175
169 109
965 183
909 192
343 65
826 849
306 963
542 474
702 783
869 100
537 544
112 864
411 128
947 452
206 914
185 369
382 851
496 43
